NAME          
ROWS
 N  OBJ
 L  c1
 L  c2
 L  c3
 L  c4
COLUMNS
    MARKER    'MARKER'                 'INTORG'
    x[1]      c1        128
    x[1]      c2        511
    x[1]      c3        154
    x[1]      c4        111
    x[1]      OBJ       -346
    x[2]      c1        387
    x[2]      c2        67
    x[2]      c3        188
    x[2]      c4        516
    x[2]      OBJ       -621
    x[3]      c1        501
    x[3]      c2        324
    x[3]      c3        351
    x[3]      c4        390
    x[3]      OBJ       -560
    x[4]      c1        318
    x[4]      c2        186
    x[4]      c3        403
    x[4]      c4        359
    x[4]      OBJ       -855
    x[5]      c1        509
    x[5]      c2        377
    x[5]      c3        445
    x[5]      c4        795
    x[5]      OBJ       -471
    x[6]      c1        35
    x[6]      c2        799
    x[6]      c3        455
    x[6]      c4        713
    x[6]      OBJ       -810
    x[7]      c1        763
    x[7]      c2        383
    x[7]      c3        533
    x[7]      c4        233
    x[7]      OBJ       -156
    x[8]      c1        970
    x[8]      c2        86
    x[8]      c3        197
    x[8]      c4        296
    x[8]      OBJ       -633
    x[9]      c1        951
    x[9]      c2        654
    x[9]      c3        736
    x[9]      c4        754
    x[9]      OBJ       -182
    x[10]     c1        940
    x[10]     c2        578
    x[10]     c3        12
    x[10]     c4        62
    x[10]     OBJ       -159
    x[11]     c1        264
    x[11]     c2        797
    x[11]     c3        139
    x[11]     c4        955
    x[11]     OBJ       -529
    x[12]     c1        74
    x[12]     c2        432
    x[12]     c3        4
    x[12]     c4        309
    x[12]     OBJ       -320
    x[13]     c1        891
    x[13]     c2        826
    x[13]     c3        36
    x[13]     c4        902
    x[13]     OBJ       -778
    x[14]     c1        796
    x[14]     c2        621
    x[14]     c3        698
    x[14]     c4        245
    x[14]     OBJ       -541
    x[15]     c1        374
    x[15]     c2        90
    x[15]     c3        96
    x[15]     c4        961
    x[15]     OBJ       -639
    x[16]     c1        67
    x[16]     c2        275
    x[16]     c3        818
    x[16]     c4        771
    x[16]     OBJ       -936
    x[17]     c1        569
    x[17]     c2        200
    x[17]     c3        6
    x[17]     c4        580
    x[17]     OBJ       -819
    x[18]     c1        267
    x[18]     c2        411
    x[18]     c3        799
    x[18]     c4        217
    x[18]     OBJ       -627
    x[19]     c1        537
    x[19]     c2        996
    x[19]     c3        443
    x[19]     c4        579
    x[19]     OBJ       -757
    x[20]     c1        166
    x[20]     c2        779
    x[20]     c3        64
    x[20]     c4        535
    x[20]     OBJ       -698
    x[21]     c1        958
    x[21]     c2        144
    x[21]     c3        206
    x[21]     c4        187
    x[21]     OBJ       -460
    x[22]     c1        854
    x[22]     c2        640
    x[22]     c3        736
    x[22]     c4        73
    x[22]     OBJ       -486
    x[23]     c1        637
    x[23]     c2        840
    x[23]     c3        705
    x[23]     c4        737
    x[23]     OBJ       -364
    x[24]     c1        927
    x[24]     c2        39
    x[24]     c3        628
    x[24]     c4        132
    x[24]     OBJ       -344
    x[25]     c1        268
    x[25]     c2        349
    x[25]     c3        401
    x[25]     c4        343
    x[25]     OBJ       -652
    x[26]     c1        493
    x[26]     c2        247
    x[26]     c3        520
    x[26]     c4        149
    x[26]     OBJ       -957
    x[27]     c1        965
    x[27]     c2        87
    x[27]     c3        922
    x[27]     c4        950
    x[27]     OBJ       -195
    x[28]     c1        895
    x[28]     c2        397
    x[28]     c3        315
    x[28]     c4        532
    x[28]     OBJ       -167
    x[29]     c1        501
    x[29]     c2        280
    x[29]     c3        337
    x[29]     c4        703
    x[29]     OBJ       -852
    x[30]     c1        738
    x[30]     c2        146
    x[30]     c3        506
    x[30]     c4        493
    x[30]     OBJ       -456
    x[31]     c1        481
    x[31]     c2        480
    x[31]     c3        857
    x[31]     c4        59
    x[31]     OBJ       -929
    x[32]     c1        365
    x[32]     c2        518
    x[32]     c3        931
    x[32]     c4        32
    x[32]     OBJ       -418
    x[33]     c1        246
    x[33]     c2        58
    x[33]     c3        270
    x[33]     c4        390
    x[33]     OBJ       -114
    x[34]     c1        593
    x[34]     c2        192
    x[34]     c3        686
    x[34]     c4        140
    x[34]     OBJ       -960
    x[35]     c1        480
    x[35]     c2        757
    x[35]     c3        707
    x[35]     c4        265
    x[35]     OBJ       -610
    x[36]     c1        601
    x[36]     c2        769
    x[36]     c3        846
    x[36]     c4        529
    x[36]     OBJ       -364
    x[37]     c1        747
    x[37]     c2        573
    x[37]     c3        908
    x[37]     c4        25
    x[37]     OBJ       -447
    x[38]     c1        470
    x[38]     c2        364
    x[38]     c3        681
    x[38]     c4        575
    x[38]     OBJ       -295
    x[39]     c1        218
    x[39]     c2        520
    x[39]     c3        49
    x[39]     c4        930
    x[39]     OBJ       -796
    x[40]     c1        737
    x[40]     c2        553
    x[40]     c3        346
    x[40]     c4        48
    x[40]     OBJ       -193
    x[41]     c1        582
    x[41]     c2        816
    x[41]     c3        911
    x[41]     c4        72
    x[41]     OBJ       -515
    x[42]     c1        439
    x[42]     c2        86
    x[42]     c3        467
    x[42]     c4        37
    x[42]     OBJ       -123
    x[43]     c1        248
    x[43]     c2        604
    x[43]     c3        243
    x[43]     c4        566
    x[43]     OBJ       -949
    x[44]     c1        503
    x[44]     c2        991
    x[44]     c3        283
    x[44]     c4        479
    x[44]     OBJ       -421
    x[45]     c1        648
    x[45]     c2        335
    x[45]     c3        656
    x[45]     c4        956
    x[45]     OBJ       -769
RHS
    rhs       c1        12050
    rhs       c2        10088
    rhs       c3        10347
    rhs       c4        9842
RANGES
BOUNDS
 BV bounds    x[1]
 BV bounds    x[2]
 BV bounds    x[3]
 BV bounds    x[4]
 BV bounds    x[5]
 BV bounds    x[6]
 BV bounds    x[7]
 BV bounds    x[8]
 BV bounds    x[9]
 BV bounds    x[10]
 BV bounds    x[11]
 BV bounds    x[12]
 BV bounds    x[13]
 BV bounds    x[14]
 BV bounds    x[15]
 BV bounds    x[16]
 BV bounds    x[17]
 BV bounds    x[18]
 BV bounds    x[19]
 BV bounds    x[20]
 BV bounds    x[21]
 BV bounds    x[22]
 BV bounds    x[23]
 BV bounds    x[24]
 BV bounds    x[25]
 BV bounds    x[26]
 BV bounds    x[27]
 BV bounds    x[28]
 BV bounds    x[29]
 BV bounds    x[30]
 BV bounds    x[31]
 BV bounds    x[32]
 BV bounds    x[33]
 BV bounds    x[34]
 BV bounds    x[35]
 BV bounds    x[36]
 BV bounds    x[37]
 BV bounds    x[38]
 BV bounds    x[39]
 BV bounds    x[40]
 BV bounds    x[41]
 BV bounds    x[42]
 BV bounds    x[43]
 BV bounds    x[44]
 BV bounds    x[45]
ENDATA
